54
91
73
79
13
1
50
94
32
97
98
49
70
89
90
17
11
23
42
22
58
29
36
67
75
7
72
57
31
99
45
33
68
14
86
96
16
77
43
64
59
5
62
37
19
51
35
30
100
2
48
92
87
26
55
9
6
40
83
3
53
60
44
93
4
71
39
15
69
84
41
88
24
27
81
34
38
66
8
52
46
74
61
76
80
78
65
82
47
12
28
21
56
95
10
20
25
18
85
63
54
